NAME : pr152Preorder.6378.tour
COMMENT : Length = 6378
COMMENT : Found by LKH [Keld Helsgaun] Thu Apr 23 18:17:34 2020
TYPE : TOUR
DIMENSION : 152
TOUR_SECTION
1
16
2
33
32
15
3
31
30
29
14
4
38
28
27
13
5
26
25
24
12
6
39
23
22
11
7
20
21
19
10
8
9
17
18
40
41
60
61
62
42
58
59
64
63
83
87
82
43
57
65
66
67
55
44
56
68
81
101
102
103
88
112
111
104
105
106
107
86
84
85
108
109
110
117
140
139
141
142
143
138
137
118
119
136
135
144
145
146
134
133
120
121
132
131
147
148
149
130
129
122
123
128
127
151
150
152
126
125
124
93
94
95
92
77
76
50
48
49
74
75
73
51
47
78
116
115
96
91
79
97
98
99
90
114
113
100
89
80
45
54
69
70
71
72
53
52
46
37
34
36
35
-1
EOF
